c DIMACS File generated by BumbleBEE
p cnf 182 1953
1 0
2 -3 0
-2 3 79 0
2 -79 0
-3 -79 0
3 -4 0
-3 4 80 0
3 -80 0
-4 -80 0
4 -5 0
-4 5 81 0
4 -81 0
-5 -81 0
5 -6 0
-5 6 82 0
5 -82 0
-6 -82 0
6 -7 0
-6 7 83 0
6 -83 0
-7 -83 0
7 -8 0
-7 8 84 0
7 -84 0
-8 -84 0
9 -10 0
-9 10 85 0
9 -85 0
-10 -85 0
10 -11 0
-10 11 86 0
10 -86 0
-11 -86 0
11 -12 0
-11 12 87 0
11 -87 0
-12 -87 0
12 -13 0
-12 13 88 0
12 -88 0
-13 -88 0
13 -14 0
-13 14 89 0
13 -89 0
-14 -89 0
14 -15 0
-14 15 90 0
14 -90 0
-15 -90 0
16 -17 0
-16 17 91 0
16 -91 0
-17 -91 0
17 -18 0
-17 18 92 0
17 -92 0
-18 -92 0
18 -19 0
-18 19 93 0
18 -93 0
-19 -93 0
19 -20 0
-19 20 94 0
19 -94 0
-20 -94 0
20 -21 0
-20 21 95 0
20 -95 0
-21 -95 0
21 -22 0
-21 22 96 0
21 -96 0
-22 -96 0
23 -24 0
-23 24 97 0
23 -97 0
-24 -97 0
24 -25 0
-24 25 98 0
24 -98 0
-25 -98 0
25 -26 0
-25 26 99 0
25 -99 0
-26 -99 0
26 -27 0
-26 27 100 0
26 -100 0
-27 -100 0
27 -28 0
-27 28 101 0
27 -101 0
-28 -101 0
28 -29 0
-28 29 102 0
28 -102 0
-29 -102 0
30 -31 0
-30 31 103 0
30 -103 0
-31 -103 0
31 -32 0
-31 32 104 0
31 -104 0
-32 -104 0
32 -33 0
-32 33 105 0
32 -105 0
-33 -105 0
33 -34 0
-33 34 106 0
33 -106 0
-34 -106 0
34 -35 0
-34 35 107 0
34 -107 0
-35 -107 0
35 -36 0
-35 36 108 0
35 -108 0
-36 -108 0
37 -38 0
-37 38 109 0
37 -109 0
-38 -109 0
38 -39 0
-38 39 110 0
38 -110 0
-39 -110 0
39 -40 0
-39 40 111 0
39 -111 0
-40 -111 0
40 -41 0
-40 41 112 0
40 -112 0
-41 -112 0
41 -42 0
-41 42 113 0
41 -113 0
-42 -113 0
42 -43 0
-42 43 114 0
42 -114 0
-43 -114 0
44 -45 0
-44 45 115 0
44 -115 0
-45 -115 0
45 -46 0
-45 46 116 0
45 -116 0
-46 -116 0
46 -47 0
-46 47 117 0
46 -117 0
-47 -117 0
47 -48 0
-47 48 118 0
47 -118 0
-48 -118 0
48 -49 0
-48 49 119 0
48 -119 0
-49 -119 0
49 -50 0
-49 50 120 0
49 -120 0
-50 -120 0
51 -52 0
-51 52 121 0
51 -121 0
-52 -121 0
52 -53 0
-52 53 122 0
52 -122 0
-53 -122 0
53 -54 0
-53 54 123 0
53 -123 0
-54 -123 0
54 -55 0
-54 55 124 0
54 -124 0
-55 -124 0
55 -56 0
-55 56 125 0
55 -125 0
-56 -125 0
56 -57 0
-56 57 126 0
56 -126 0
-57 -126 0
2 9 0
2 16 0
2 23 0
2 30 0
2 37 0
2 44 0
2 51 0
9 16 0
9 23 0
9 30 0
9 37 0
9 44 0
9 51 0
16 23 0
16 30 0
16 37 0
16 44 0
16 51 0
23 30 0
23 37 0
23 44 0
23 51 0
30 37 0
30 44 0
30 51 0
37 44 0
37 51 0
44 51 0
-2 -9 -16 -23 -30 -37 -44 -51 0
-79 -85 0
-79 -91 0
-79 -97 0
-79 -103 0
-79 -109 0
-79 -115 0
-79 -121 0
-85 -91 0
-85 -97 0
-85 -103 0
-85 -109 0
-85 -115 0
-85 -121 0
-91 -97 0
-91 -103 0
-91 -109 0
-91 -115 0
-91 -121 0
-97 -103 0
-97 -109 0
-97 -115 0
-97 -121 0
-103 -109 0
-103 -115 0
-103 -121 0
-109 -115 0
-109 -121 0
-115 -121 0
79 85 91 97 103 109 115 121 0
-80 -86 0
-80 -92 0
-80 -98 0
-80 -104 0
-80 -110 0
-80 -116 0
-80 -122 0
-86 -92 0
-86 -98 0
-86 -104 0
-86 -110 0
-86 -116 0
-86 -122 0
-92 -98 0
-92 -104 0
-92 -110 0
-92 -116 0
-92 -122 0
-98 -104 0
-98 -110 0
-98 -116 0
-98 -122 0
-104 -110 0
-104 -116 0
-104 -122 0
-110 -116 0
-110 -122 0
-116 -122 0
80 86 92 98 104 110 116 122 0
-81 -87 0
-81 -93 0
-81 -99 0
-81 -105 0
-81 -111 0
-81 -117 0
-81 -123 0
-87 -93 0
-87 -99 0
-87 -105 0
-87 -111 0
-87 -117 0
-87 -123 0
-93 -99 0
-93 -105 0
-93 -111 0
-93 -117 0
-93 -123 0
-99 -105 0
-99 -111 0
-99 -117 0
-99 -123 0
-105 -111 0
-105 -117 0
-105 -123 0
-111 -117 0
-111 -123 0
-117 -123 0
81 87 93 99 105 111 117 123 0
-82 -88 0
-82 -94 0
-82 -100 0
-82 -106 0
-82 -112 0
-82 -118 0
-82 -124 0
-88 -94 0
-88 -100 0
-88 -106 0
-88 -112 0
-88 -118 0
-88 -124 0
-94 -100 0
-94 -106 0
-94 -112 0
-94 -118 0
-94 -124 0
-100 -106 0
-100 -112 0
-100 -118 0
-100 -124 0
-106 -112 0
-106 -118 0
-106 -124 0
-112 -118 0
-112 -124 0
-118 -124 0
82 88 94 100 106 112 118 124 0
-83 -89 0
-83 -95 0
-83 -101 0
-83 -107 0
-83 -113 0
-83 -119 0
-83 -125 0
-89 -95 0
-89 -101 0
-89 -107 0
-89 -113 0
-89 -119 0
-89 -125 0
-95 -101 0
-95 -107 0
-95 -113 0
-95 -119 0
-95 -125 0
-101 -107 0
-101 -113 0
-101 -119 0
-101 -125 0
-107 -113 0
-107 -119 0
-107 -125 0
-113 -119 0
-113 -125 0
-119 -125 0
83 89 95 101 107 113 119 125 0
-84 -90 0
-84 -96 0
-84 -102 0
-84 -108 0
-84 -114 0
-84 -120 0
-84 -126 0
-90 -96 0
-90 -102 0
-90 -108 0
-90 -114 0
-90 -120 0
-90 -126 0
-96 -102 0
-96 -108 0
-96 -114 0
-96 -120 0
-96 -126 0
-102 -108 0
-102 -114 0
-102 -120 0
-102 -126 0
-108 -114 0
-108 -120 0
-108 -126 0
-114 -120 0
-114 -126 0
-120 -126 0
84 90 96 102 108 114 120 126 0
-8 -15 0
-8 -22 0
-8 -29 0
-8 -36 0
-8 -43 0
-8 -50 0
-8 -57 0
-15 -22 0
-15 -29 0
-15 -36 0
-15 -43 0
-15 -50 0
-15 -57 0
-22 -29 0
-22 -36 0
-22 -43 0
-22 -50 0
-22 -57 0
-29 -36 0
-29 -43 0
-29 -50 0
-29 -57 0
-36 -43 0
-36 -50 0
-36 -57 0
-43 -50 0
-43 -57 0
-50 -57 0
8 15 22 29 36 43 50 57 0
-78 77 0
-77 76 0
-76 75 0
-75 74 0
-74 73 0
-73 72 0
-72 71 0
-71 70 0
-70 69 0
-69 68 0
-68 67 0
-67 66 0
-66 65 0
-65 64 0
-64 63 0
-63 62 0
-62 61 0
-61 60 0
-60 59 0
-59 58 0
-2 127 0
-3 128 0
-4 129 0
-5 130 0
-6 131 0
-7 132 0
-8 133 0
-134 2 0
-135 3 0
-136 4 0
-137 5 0
-138 6 0
-139 7 0
-140 8 0
-23 127 0
-24 128 0
-25 129 0
-26 130 0
-27 131 0
-28 132 0
-29 133 0
-134 23 0
-135 24 0
-136 25 0
-137 26 0
-138 27 0
-139 28 0
-140 29 0
-23 -2 128 0
23 2 -127 0
-23 -3 129 0
23 3 -128 0
-23 -4 130 0
23 4 -129 0
-23 -5 131 0
23 5 -130 0
-23 -6 132 0
23 6 -131 0
-23 -7 133 0
23 7 -132 0
-23 -8 134 0
23 8 -133 0
-24 -2 129 0
24 2 -128 0
-24 -3 130 0
24 3 -129 0
-24 -4 131 0
24 4 -130 0
-24 -5 132 0
24 5 -131 0
-24 -6 133 0
24 6 -132 0
-24 -7 134 0
24 7 -133 0
-24 -8 135 0
24 8 -134 0
-25 -2 130 0
25 2 -129 0
-25 -3 131 0
25 3 -130 0
-25 -4 132 0
25 4 -131 0
-25 -5 133 0
25 5 -132 0
-25 -6 134 0
25 6 -133 0
-25 -7 135 0
25 7 -134 0
-25 -8 136 0
25 8 -135 0
-26 -2 131 0
26 2 -130 0
-26 -3 132 0
26 3 -131 0
-26 -4 133 0
26 4 -132 0
-26 -5 134 0
26 5 -133 0
-26 -6 135 0
26 6 -134 0
-26 -7 136 0
26 7 -135 0
-26 -8 137 0
26 8 -136 0
-27 -2 132 0
27 2 -131 0
-27 -3 133 0
27 3 -132 0
-27 -4 134 0
27 4 -133 0
-27 -5 135 0
27 5 -134 0
-27 -6 136 0
27 6 -135 0
-27 -7 137 0
27 7 -136 0
-27 -8 138 0
27 8 -137 0
-28 -2 133 0
28 2 -132 0
-28 -3 134 0
28 3 -133 0
-28 -4 135 0
28 4 -134 0
-28 -5 136 0
28 5 -135 0
-28 -6 137 0
28 6 -136 0
-28 -7 138 0
28 7 -137 0
-28 -8 139 0
28 8 -138 0
-29 -2 134 0
29 2 -133 0
-29 -3 135 0
29 3 -134 0
-29 -4 136 0
29 4 -135 0
-29 -5 137 0
29 5 -136 0
-29 -6 138 0
29 6 -137 0
-29 -7 139 0
29 7 -138 0
-29 -8 140 0
29 8 -139 0
140 -78 0
139 -77 0
138 -76 0
137 -75 0
136 -74 0
135 -73 0
134 -72 0
133 -71 0
132 -70 0
131 -69 0
130 -68 0
129 -67 0
128 -66 0
127 -65 0
71 -140 0
70 -139 0
69 -138 0
68 -137 0
67 -136 0
66 -135 0
65 -134 0
64 -133 0
63 -132 0
62 -131 0
61 -130 0
60 -129 0
59 -128 0
58 -127 0
50 -78 0
49 -77 0
48 -76 0
47 -75 0
46 -74 0
45 -73 0
44 -72 0
64 -50 0
63 -49 0
62 -48 0
61 -47 0
60 -46 0
59 -45 0
58 -44 0
50 140 -77 0
-50 -140 78 0
50 139 -76 0
-50 -139 77 0
50 138 -75 0
-50 -138 76 0
50 137 -74 0
-50 -137 75 0
50 136 -73 0
-50 -136 74 0
50 135 -72 0
-50 -135 73 0
50 134 -71 0
-50 -134 72 0
50 133 -70 0
-50 -133 71 0
50 132 -69 0
-50 -132 70 0
50 131 -68 0
-50 -131 69 0
50 130 -67 0
-50 -130 68 0
50 129 -66 0
-50 -129 67 0
50 128 -65 0
-50 -128 66 0
50 127 -64 0
-50 -127 65 0
49 140 -76 0
-49 -140 77 0
49 139 -75 0
-49 -139 76 0
49 138 -74 0
-49 -138 75 0
49 137 -73 0
-49 -137 74 0
49 136 -72 0
-49 -136 73 0
49 135 -71 0
-49 -135 72 0
49 134 -70 0
-49 -134 71 0
49 133 -69 0
-49 -133 70 0
49 132 -68 0
-49 -132 69 0
49 131 -67 0
-49 -131 68 0
49 130 -66 0
-49 -130 67 0
49 129 -65 0
-49 -129 66 0
49 128 -64 0
-49 -128 65 0
49 127 -63 0
-49 -127 64 0
48 140 -75 0
-48 -140 76 0
48 139 -74 0
-48 -139 75 0
48 138 -73 0
-48 -138 74 0
48 137 -72 0
-48 -137 73 0
48 136 -71 0
-48 -136 72 0
48 135 -70 0
-48 -135 71 0
48 134 -69 0
-48 -134 70 0
48 133 -68 0
-48 -133 69 0
48 132 -67 0
-48 -132 68 0
48 131 -66 0
-48 -131 67 0
48 130 -65 0
-48 -130 66 0
48 129 -64 0
-48 -129 65 0
48 128 -63 0
-48 -128 64 0
48 127 -62 0
-48 -127 63 0
47 140 -74 0
-47 -140 75 0
47 139 -73 0
-47 -139 74 0
47 138 -72 0
-47 -138 73 0
47 137 -71 0
-47 -137 72 0
47 136 -70 0
-47 -136 71 0
47 135 -69 0
-47 -135 70 0
47 134 -68 0
-47 -134 69 0
47 133 -67 0
-47 -133 68 0
47 132 -66 0
-47 -132 67 0
47 131 -65 0
-47 -131 66 0
47 130 -64 0
-47 -130 65 0
47 129 -63 0
-47 -129 64 0
47 128 -62 0
-47 -128 63 0
47 127 -61 0
-47 -127 62 0
46 140 -73 0
-46 -140 74 0
46 139 -72 0
-46 -139 73 0
46 138 -71 0
-46 -138 72 0
46 137 -70 0
-46 -137 71 0
46 136 -69 0
-46 -136 70 0
46 135 -68 0
-46 -135 69 0
46 134 -67 0
-46 -134 68 0
46 133 -66 0
-46 -133 67 0
46 132 -65 0
-46 -132 66 0
46 131 -64 0
-46 -131 65 0
46 130 -63 0
-46 -130 64 0
46 129 -62 0
-46 -129 63 0
46 128 -61 0
-46 -128 62 0
46 127 -60 0
-46 -127 61 0
45 140 -72 0
-45 -140 73 0
45 139 -71 0
-45 -139 72 0
45 138 -70 0
-45 -138 71 0
45 137 -69 0
-45 -137 70 0
45 136 -68 0
-45 -136 69 0
45 135 -67 0
-45 -135 68 0
45 134 -66 0
-45 -134 67 0
45 133 -65 0
-45 -133 66 0
45 132 -64 0
-45 -132 65 0
45 131 -63 0
-45 -131 64 0
45 130 -62 0
-45 -130 63 0
45 129 -61 0
-45 -129 62 0
45 128 -60 0
-45 -128 61 0
45 127 -59 0
-45 -127 60 0
44 140 -71 0
-44 -140 72 0
44 139 -70 0
-44 -139 71 0
44 138 -69 0
-44 -138 70 0
44 137 -68 0
-44 -137 69 0
44 136 -67 0
-44 -136 68 0
44 135 -66 0
-44 -135 67 0
44 134 -65 0
-44 -134 66 0
44 133 -64 0
-44 -133 65 0
44 132 -63 0
-44 -132 64 0
44 131 -62 0
-44 -131 63 0
44 130 -61 0
-44 -130 62 0
44 129 -60 0
-44 -129 61 0
44 128 -59 0
-44 -128 60 0
44 127 -58 0
-44 -127 59 0
127 -128 0
128 -129 0
129 -130 0
130 -131 0
131 -132 0
132 -133 0
133 -134 0
134 -135 0
135 -136 0
136 -137 0
137 -138 0
138 -139 0
139 -140 0
-16 141 0
-17 142 0
-18 143 0
-19 144 0
-20 145 0
-21 146 0
-22 147 0
-148 16 0
-149 17 0
-150 18 0
-151 19 0
-152 20 0
-153 21 0
-154 22 0
-44 141 0
-45 142 0
-46 143 0
-47 144 0
-48 145 0
-49 146 0
-50 147 0
-148 44 0
-149 45 0
-150 46 0
-151 47 0
-152 48 0
-153 49 0
-154 50 0
-44 -16 142 0
44 16 -141 0
-44 -17 143 0
44 17 -142 0
-44 -18 144 0
44 18 -143 0
-44 -19 145 0
44 19 -144 0
-44 -20 146 0
44 20 -145 0
-44 -21 147 0
44 21 -146 0
-44 -22 148 0
44 22 -147 0
-45 -16 143 0
45 16 -142 0
-45 -17 144 0
45 17 -143 0
-45 -18 145 0
45 18 -144 0
-45 -19 146 0
45 19 -145 0
-45 -20 147 0
45 20 -146 0
-45 -21 148 0
45 21 -147 0
-45 -22 149 0
45 22 -148 0
-46 -16 144 0
46 16 -143 0
-46 -17 145 0
46 17 -144 0
-46 -18 146 0
46 18 -145 0
-46 -19 147 0
46 19 -146 0
-46 -20 148 0
46 20 -147 0
-46 -21 149 0
46 21 -148 0
-46 -22 150 0
46 22 -149 0
-47 -16 145 0
47 16 -144 0
-47 -17 146 0
47 17 -145 0
-47 -18 147 0
47 18 -146 0
-47 -19 148 0
47 19 -147 0
-47 -20 149 0
47 20 -148 0
-47 -21 150 0
47 21 -149 0
-47 -22 151 0
47 22 -150 0
-48 -16 146 0
48 16 -145 0
-48 -17 147 0
48 17 -146 0
-48 -18 148 0
48 18 -147 0
-48 -19 149 0
48 19 -148 0
-48 -20 150 0
48 20 -149 0
-48 -21 151 0
48 21 -150 0
-48 -22 152 0
48 22 -151 0
-49 -16 147 0
49 16 -146 0
-49 -17 148 0
49 17 -147 0
-49 -18 149 0
49 18 -148 0
-49 -19 150 0
49 19 -149 0
-49 -20 151 0
49 20 -150 0
-49 -21 152 0
49 21 -151 0
-49 -22 153 0
49 22 -152 0
-50 -16 148 0
50 16 -147 0
-50 -17 149 0
50 17 -148 0
-50 -18 150 0
50 18 -149 0
-50 -19 151 0
50 19 -150 0
-50 -20 152 0
50 20 -151 0
-50 -21 153 0
50 21 -152 0
-50 -22 154 0
50 22 -153 0
154 -78 0
153 -77 0
152 -76 0
151 -75 0
150 -74 0
149 -73 0
148 -72 0
147 -71 0
146 -70 0
145 -69 0
144 -68 0
143 -67 0
142 -66 0
141 -65 0
71 -154 0
70 -153 0
69 -152 0
68 -151 0
67 -150 0
66 -149 0
65 -148 0
64 -147 0
63 -146 0
62 -145 0
61 -144 0
60 -143 0
59 -142 0
58 -141 0
57 -78 0
56 -77 0
55 -76 0
54 -75 0
53 -74 0
52 -73 0
51 -72 0
64 -57 0
63 -56 0
62 -55 0
61 -54 0
60 -53 0
59 -52 0
58 -51 0
57 154 -77 0
-57 -154 78 0
57 153 -76 0
-57 -153 77 0
57 152 -75 0
-57 -152 76 0
57 151 -74 0
-57 -151 75 0
57 150 -73 0
-57 -150 74 0
57 149 -72 0
-57 -149 73 0
57 148 -71 0
-57 -148 72 0
57 147 -70 0
-57 -147 71 0
57 146 -69 0
-57 -146 70 0
57 145 -68 0
-57 -145 69 0
57 144 -67 0
-57 -144 68 0
57 143 -66 0
-57 -143 67 0
57 142 -65 0
-57 -142 66 0
57 141 -64 0
-57 -141 65 0
56 154 -76 0
-56 -154 77 0
56 153 -75 0
-56 -153 76 0
56 152 -74 0
-56 -152 75 0
56 151 -73 0
-56 -151 74 0
56 150 -72 0
-56 -150 73 0
56 149 -71 0
-56 -149 72 0
56 148 -70 0
-56 -148 71 0
56 147 -69 0
-56 -147 70 0
56 146 -68 0
-56 -146 69 0
56 145 -67 0
-56 -145 68 0
56 144 -66 0
-56 -144 67 0
56 143 -65 0
-56 -143 66 0
56 142 -64 0
-56 -142 65 0
56 141 -63 0
-56 -141 64 0
55 154 -75 0
-55 -154 76 0
55 153 -74 0
-55 -153 75 0
55 152 -73 0
-55 -152 74 0
55 151 -72 0
-55 -151 73 0
55 150 -71 0
-55 -150 72 0
55 149 -70 0
-55 -149 71 0
55 148 -69 0
-55 -148 70 0
55 147 -68 0
-55 -147 69 0
55 146 -67 0
-55 -146 68 0
55 145 -66 0
-55 -145 67 0
55 144 -65 0
-55 -144 66 0
55 143 -64 0
-55 -143 65 0
55 142 -63 0
-55 -142 64 0
55 141 -62 0
-55 -141 63 0
54 154 -74 0
-54 -154 75 0
54 153 -73 0
-54 -153 74 0
54 152 -72 0
-54 -152 73 0
54 151 -71 0
-54 -151 72 0
54 150 -70 0
-54 -150 71 0
54 149 -69 0
-54 -149 70 0
54 148 -68 0
-54 -148 69 0
54 147 -67 0
-54 -147 68 0
54 146 -66 0
-54 -146 67 0
54 145 -65 0
-54 -145 66 0
54 144 -64 0
-54 -144 65 0
54 143 -63 0
-54 -143 64 0
54 142 -62 0
-54 -142 63 0
54 141 -61 0
-54 -141 62 0
53 154 -73 0
-53 -154 74 0
53 153 -72 0
-53 -153 73 0
53 152 -71 0
-53 -152 72 0
53 151 -70 0
-53 -151 71 0
53 150 -69 0
-53 -150 70 0
53 149 -68 0
-53 -149 69 0
53 148 -67 0
-53 -148 68 0
53 147 -66 0
-53 -147 67 0
53 146 -65 0
-53 -146 66 0
53 145 -64 0
-53 -145 65 0
53 144 -63 0
-53 -144 64 0
53 143 -62 0
-53 -143 63 0
53 142 -61 0
-53 -142 62 0
53 141 -60 0
-53 -141 61 0
52 154 -72 0
-52 -154 73 0
52 153 -71 0
-52 -153 72 0
52 152 -70 0
-52 -152 71 0
52 151 -69 0
-52 -151 70 0
52 150 -68 0
-52 -150 69 0
52 149 -67 0
-52 -149 68 0
52 148 -66 0
-52 -148 67 0
52 147 -65 0
-52 -147 66 0
52 146 -64 0
-52 -146 65 0
52 145 -63 0
-52 -145 64 0
52 144 -62 0
-52 -144 63 0
52 143 -61 0
-52 -143 62 0
52 142 -60 0
-52 -142 61 0
52 141 -59 0
-52 -141 60 0
51 154 -71 0
-51 -154 72 0
51 153 -70 0
-51 -153 71 0
51 152 -69 0
-51 -152 70 0
51 151 -68 0
-51 -151 69 0
51 150 -67 0
-51 -150 68 0
51 149 -66 0
-51 -149 67 0
51 148 -65 0
-51 -148 66 0
51 147 -64 0
-51 -147 65 0
51 146 -63 0
-51 -146 64 0
51 145 -62 0
-51 -145 63 0
51 144 -61 0
-51 -144 62 0
51 143 -60 0
-51 -143 61 0
51 142 -59 0
-51 -142 60 0
51 141 -58 0
-51 -141 59 0
141 -142 0
142 -143 0
143 -144 0
144 -145 0
145 -146 0
146 -147 0
147 -148 0
148 -149 0
149 -150 0
150 -151 0
151 -152 0
152 -153 0
153 -154 0
-9 155 0
-10 156 0
-11 157 0
-12 158 0
-13 159 0
-14 160 0
-15 161 0
-162 9 0
-163 10 0
-164 11 0
-165 12 0
-166 13 0
-167 14 0
-168 15 0
-30 155 0
-31 156 0
-32 157 0
-33 158 0
-34 159 0
-35 160 0
-36 161 0
-162 30 0
-163 31 0
-164 32 0
-165 33 0
-166 34 0
-167 35 0
-168 36 0
-30 -9 156 0
30 9 -155 0
-30 -10 157 0
30 10 -156 0
-30 -11 158 0
30 11 -157 0
-30 -12 159 0
30 12 -158 0
-30 -13 160 0
30 13 -159 0
-30 -14 161 0
30 14 -160 0
-30 -15 162 0
30 15 -161 0
-31 -9 157 0
31 9 -156 0
-31 -10 158 0
31 10 -157 0
-31 -11 159 0
31 11 -158 0
-31 -12 160 0
31 12 -159 0
-31 -13 161 0
31 13 -160 0
-31 -14 162 0
31 14 -161 0
-31 -15 163 0
31 15 -162 0
-32 -9 158 0
32 9 -157 0
-32 -10 159 0
32 10 -158 0
-32 -11 160 0
32 11 -159 0
-32 -12 161 0
32 12 -160 0
-32 -13 162 0
32 13 -161 0
-32 -14 163 0
32 14 -162 0
-32 -15 164 0
32 15 -163 0
-33 -9 159 0
33 9 -158 0
-33 -10 160 0
33 10 -159 0
-33 -11 161 0
33 11 -160 0
-33 -12 162 0
33 12 -161 0
-33 -13 163 0
33 13 -162 0
-33 -14 164 0
33 14 -163 0
-33 -15 165 0
33 15 -164 0
-34 -9 160 0
34 9 -159 0
-34 -10 161 0
34 10 -160 0
-34 -11 162 0
34 11 -161 0
-34 -12 163 0
34 12 -162 0
-34 -13 164 0
34 13 -163 0
-34 -14 165 0
34 14 -164 0
-34 -15 166 0
34 15 -165 0
-35 -9 161 0
35 9 -160 0
-35 -10 162 0
35 10 -161 0
-35 -11 163 0
35 11 -162 0
-35 -12 164 0
35 12 -163 0
-35 -13 165 0
35 13 -164 0
-35 -14 166 0
35 14 -165 0
-35 -15 167 0
35 15 -166 0
-36 -9 162 0
36 9 -161 0
-36 -10 163 0
36 10 -162 0
-36 -11 164 0
36 11 -163 0
-36 -12 165 0
36 12 -164 0
-36 -13 166 0
36 13 -165 0
-36 -14 167 0
36 14 -166 0
-36 -15 168 0
36 15 -167 0
168 -78 0
167 -77 0
166 -76 0
165 -75 0
164 -74 0
163 -73 0
162 -72 0
161 -71 0
160 -70 0
159 -69 0
158 -68 0
157 -67 0
156 -66 0
155 -65 0
71 -168 0
70 -167 0
69 -166 0
68 -165 0
67 -164 0
66 -163 0
65 -162 0
64 -161 0
63 -160 0
62 -159 0
61 -158 0
60 -157 0
59 -156 0
58 -155 0
57 -78 0
56 -77 0
55 -76 0
54 -75 0
53 -74 0
52 -73 0
51 -72 0
64 -57 0
63 -56 0
62 -55 0
61 -54 0
60 -53 0
59 -52 0
58 -51 0
57 168 -77 0
-57 -168 78 0
57 167 -76 0
-57 -167 77 0
57 166 -75 0
-57 -166 76 0
57 165 -74 0
-57 -165 75 0
57 164 -73 0
-57 -164 74 0
57 163 -72 0
-57 -163 73 0
57 162 -71 0
-57 -162 72 0
57 161 -70 0
-57 -161 71 0
57 160 -69 0
-57 -160 70 0
57 159 -68 0
-57 -159 69 0
57 158 -67 0
-57 -158 68 0
57 157 -66 0
-57 -157 67 0
57 156 -65 0
-57 -156 66 0
57 155 -64 0
-57 -155 65 0
56 168 -76 0
-56 -168 77 0
56 167 -75 0
-56 -167 76 0
56 166 -74 0
-56 -166 75 0
56 165 -73 0
-56 -165 74 0
56 164 -72 0
-56 -164 73 0
56 163 -71 0
-56 -163 72 0
56 162 -70 0
-56 -162 71 0
56 161 -69 0
-56 -161 70 0
56 160 -68 0
-56 -160 69 0
56 159 -67 0
-56 -159 68 0
56 158 -66 0
-56 -158 67 0
56 157 -65 0
-56 -157 66 0
56 156 -64 0
-56 -156 65 0
56 155 -63 0
-56 -155 64 0
55 168 -75 0
-55 -168 76 0
55 167 -74 0
-55 -167 75 0
55 166 -73 0
-55 -166 74 0
55 165 -72 0
-55 -165 73 0
55 164 -71 0
-55 -164 72 0
55 163 -70 0
-55 -163 71 0
55 162 -69 0
-55 -162 70 0
55 161 -68 0
-55 -161 69 0
55 160 -67 0
-55 -160 68 0
55 159 -66 0
-55 -159 67 0
55 158 -65 0
-55 -158 66 0
55 157 -64 0
-55 -157 65 0
55 156 -63 0
-55 -156 64 0
55 155 -62 0
-55 -155 63 0
54 168 -74 0
-54 -168 75 0
54 167 -73 0
-54 -167 74 0
54 166 -72 0
-54 -166 73 0
54 165 -71 0
-54 -165 72 0
54 164 -70 0
-54 -164 71 0
54 163 -69 0
-54 -163 70 0
54 162 -68 0
-54 -162 69 0
54 161 -67 0
-54 -161 68 0
54 160 -66 0
-54 -160 67 0
54 159 -65 0
-54 -159 66 0
54 158 -64 0
-54 -158 65 0
54 157 -63 0
-54 -157 64 0
54 156 -62 0
-54 -156 63 0
54 155 -61 0
-54 -155 62 0
53 168 -73 0
-53 -168 74 0
53 167 -72 0
-53 -167 73 0
53 166 -71 0
-53 -166 72 0
53 165 -70 0
-53 -165 71 0
53 164 -69 0
-53 -164 70 0
53 163 -68 0
-53 -163 69 0
53 162 -67 0
-53 -162 68 0
53 161 -66 0
-53 -161 67 0
53 160 -65 0
-53 -160 66 0
53 159 -64 0
-53 -159 65 0
53 158 -63 0
-53 -158 64 0
53 157 -62 0
-53 -157 63 0
53 156 -61 0
-53 -156 62 0
53 155 -60 0
-53 -155 61 0
52 168 -72 0
-52 -168 73 0
52 167 -71 0
-52 -167 72 0
52 166 -70 0
-52 -166 71 0
52 165 -69 0
-52 -165 70 0
52 164 -68 0
-52 -164 69 0
52 163 -67 0
-52 -163 68 0
52 162 -66 0
-52 -162 67 0
52 161 -65 0
-52 -161 66 0
52 160 -64 0
-52 -160 65 0
52 159 -63 0
-52 -159 64 0
52 158 -62 0
-52 -158 63 0
52 157 -61 0
-52 -157 62 0
52 156 -60 0
-52 -156 61 0
52 155 -59 0
-52 -155 60 0
51 168 -71 0
-51 -168 72 0
51 167 -70 0
-51 -167 71 0
51 166 -69 0
-51 -166 70 0
51 165 -68 0
-51 -165 69 0
51 164 -67 0
-51 -164 68 0
51 163 -66 0
-51 -163 67 0
51 162 -65 0
-51 -162 66 0
51 161 -64 0
-51 -161 65 0
51 160 -63 0
-51 -160 64 0
51 159 -62 0
-51 -159 63 0
51 158 -61 0
-51 -158 62 0
51 157 -60 0
-51 -157 61 0
51 156 -59 0
-51 -156 60 0
51 155 -58 0
-51 -155 59 0
155 -156 0
156 -157 0
157 -158 0
158 -159 0
159 -160 0
160 -161 0
161 -162 0
162 -163 0
163 -164 0
164 -165 0
165 -166 0
166 -167 0
167 -168 0
-9 169 0
-10 170 0
-11 171 0
-12 172 0
-13 173 0
-14 174 0
-15 175 0
-176 9 0
-177 10 0
-178 11 0
-179 12 0
-180 13 0
-181 14 0
-182 15 0
-23 169 0
-24 170 0
-25 171 0
-26 172 0
-27 173 0
-28 174 0
-29 175 0
-176 23 0
-177 24 0
-178 25 0
-179 26 0
-180 27 0
-181 28 0
-182 29 0
-23 -9 170 0
23 9 -169 0
-23 -10 171 0
23 10 -170 0
-23 -11 172 0
23 11 -171 0
-23 -12 173 0
23 12 -172 0
-23 -13 174 0
23 13 -173 0
-23 -14 175 0
23 14 -174 0
-23 -15 176 0
23 15 -175 0
-24 -9 171 0
24 9 -170 0
-24 -10 172 0
24 10 -171 0
-24 -11 173 0
24 11 -172 0
-24 -12 174 0
24 12 -173 0
-24 -13 175 0
24 13 -174 0
-24 -14 176 0
24 14 -175 0
-24 -15 177 0
24 15 -176 0
-25 -9 172 0
25 9 -171 0
-25 -10 173 0
25 10 -172 0
-25 -11 174 0
25 11 -173 0
-25 -12 175 0
25 12 -174 0
-25 -13 176 0
25 13 -175 0
-25 -14 177 0
25 14 -176 0
-25 -15 178 0
25 15 -177 0
-26 -9 173 0
26 9 -172 0
-26 -10 174 0
26 10 -173 0
-26 -11 175 0
26 11 -174 0
-26 -12 176 0
26 12 -175 0
-26 -13 177 0
26 13 -176 0
-26 -14 178 0
26 14 -177 0
-26 -15 179 0
26 15 -178 0
-27 -9 174 0
27 9 -173 0
-27 -10 175 0
27 10 -174 0
-27 -11 176 0
27 11 -175 0
-27 -12 177 0
27 12 -176 0
-27 -13 178 0
27 13 -177 0
-27 -14 179 0
27 14 -178 0
-27 -15 180 0
27 15 -179 0
-28 -9 175 0
28 9 -174 0
-28 -10 176 0
28 10 -175 0
-28 -11 177 0
28 11 -176 0
-28 -12 178 0
28 12 -177 0
-28 -13 179 0
28 13 -178 0
-28 -14 180 0
28 14 -179 0
-28 -15 181 0
28 15 -180 0
-29 -9 176 0
29 9 -175 0
-29 -10 177 0
29 10 -176 0
-29 -11 178 0
29 11 -177 0
-29 -12 179 0
29 12 -178 0
-29 -13 180 0
29 13 -179 0
-29 -14 181 0
29 14 -180 0
-29 -15 182 0
29 15 -181 0
182 -78 0
181 -77 0
180 -76 0
179 -75 0
178 -74 0
177 -73 0
176 -72 0
175 -71 0
174 -70 0
173 -69 0
172 -68 0
171 -67 0
170 -66 0
169 -65 0
71 -182 0
70 -181 0
69 -180 0
68 -179 0
67 -178 0
66 -177 0
65 -176 0
64 -175 0
63 -174 0
62 -173 0
61 -172 0
60 -171 0
59 -170 0
58 -169 0
43 -78 0
42 -77 0
41 -76 0
40 -75 0
39 -74 0
38 -73 0
37 -72 0
64 -43 0
63 -42 0
62 -41 0
61 -40 0
60 -39 0
59 -38 0
58 -37 0
43 182 -77 0
-43 -182 78 0
43 181 -76 0
-43 -181 77 0
43 180 -75 0
-43 -180 76 0
43 179 -74 0
-43 -179 75 0
43 178 -73 0
-43 -178 74 0
43 177 -72 0
-43 -177 73 0
43 176 -71 0
-43 -176 72 0
43 175 -70 0
-43 -175 71 0
43 174 -69 0
-43 -174 70 0
43 173 -68 0
-43 -173 69 0
43 172 -67 0
-43 -172 68 0
43 171 -66 0
-43 -171 67 0
43 170 -65 0
-43 -170 66 0
43 169 -64 0
-43 -169 65 0
42 182 -76 0
-42 -182 77 0
42 181 -75 0
-42 -181 76 0
42 180 -74 0
-42 -180 75 0
42 179 -73 0
-42 -179 74 0
42 178 -72 0
-42 -178 73 0
42 177 -71 0
-42 -177 72 0
42 176 -70 0
-42 -176 71 0
42 175 -69 0
-42 -175 70 0
42 174 -68 0
-42 -174 69 0
42 173 -67 0
-42 -173 68 0
42 172 -66 0
-42 -172 67 0
42 171 -65 0
-42 -171 66 0
42 170 -64 0
-42 -170 65 0
42 169 -63 0
-42 -169 64 0
41 182 -75 0
-41 -182 76 0
41 181 -74 0
-41 -181 75 0
41 180 -73 0
-41 -180 74 0
41 179 -72 0
-41 -179 73 0
41 178 -71 0
-41 -178 72 0
41 177 -70 0
-41 -177 71 0
41 176 -69 0
-41 -176 70 0
41 175 -68 0
-41 -175 69 0
41 174 -67 0
-41 -174 68 0
41 173 -66 0
-41 -173 67 0
41 172 -65 0
-41 -172 66 0
41 171 -64 0
-41 -171 65 0
41 170 -63 0
-41 -170 64 0
41 169 -62 0
-41 -169 63 0
40 182 -74 0
-40 -182 75 0
40 181 -73 0
-40 -181 74 0
40 180 -72 0
-40 -180 73 0
40 179 -71 0
-40 -179 72 0
40 178 -70 0
-40 -178 71 0
40 177 -69 0
-40 -177 70 0
40 176 -68 0
-40 -176 69 0
40 175 -67 0
-40 -175 68 0
40 174 -66 0
-40 -174 67 0
40 173 -65 0
-40 -173 66 0
40 172 -64 0
-40 -172 65 0
40 171 -63 0
-40 -171 64 0
40 170 -62 0
-40 -170 63 0
40 169 -61 0
-40 -169 62 0
39 182 -73 0
-39 -182 74 0
39 181 -72 0
-39 -181 73 0
39 180 -71 0
-39 -180 72 0
39 179 -70 0
-39 -179 71 0
39 178 -69 0
-39 -178 70 0
39 177 -68 0
-39 -177 69 0
39 176 -67 0
-39 -176 68 0
39 175 -66 0
-39 -175 67 0
39 174 -65 0
-39 -174 66 0
39 173 -64 0
-39 -173 65 0
39 172 -63 0
-39 -172 64 0
39 171 -62 0
-39 -171 63 0
39 170 -61 0
-39 -170 62 0
39 169 -60 0
-39 -169 61 0
38 182 -72 0
-38 -182 73 0
38 181 -71 0
-38 -181 72 0
38 180 -70 0
-38 -180 71 0
38 179 -69 0
-38 -179 70 0
38 178 -68 0
-38 -178 69 0
38 177 -67 0
-38 -177 68 0
38 176 -66 0
-38 -176 67 0
38 175 -65 0
-38 -175 66 0
38 174 -64 0
-38 -174 65 0
38 173 -63 0
-38 -173 64 0
38 172 -62 0
-38 -172 63 0
38 171 -61 0
-38 -171 62 0
38 170 -60 0
-38 -170 61 0
38 169 -59 0
-38 -169 60 0
37 182 -71 0
-37 -182 72 0
37 181 -70 0
-37 -181 71 0
37 180 -69 0
-37 -180 70 0
37 179 -68 0
-37 -179 69 0
37 178 -67 0
-37 -178 68 0
37 177 -66 0
-37 -177 67 0
37 176 -65 0
-37 -176 66 0
37 175 -64 0
-37 -175 65 0
37 174 -63 0
-37 -174 64 0
37 173 -62 0
-37 -173 63 0
37 172 -61 0
-37 -172 62 0
37 171 -60 0
-37 -171 61 0
37 170 -59 0
-37 -170 60 0
37 169 -58 0
-37 -169 59 0
169 -170 0
170 -171 0
171 -172 0
172 -173 0
173 -174 0
174 -175 0
175 -176 0
176 -177 0
177 -178 0
178 -179 0
179 -180 0
180 -181 0
181 -182 0
